%% Data (1st instance from da Silva et al, "Multicommodity flow model....")
J = 6;
T = 9;
C = 4;

job_tools = [| 1, 0, 0, 1, 0, 0, 0, 1, 1
                  | 1, 0, 1, 0, 1, 0, 0, 0, 0 
                  | 0, 1, 0, 0, 0, 1, 1, 1, 0
                  | 1, 0, 0, 0, 1, 0, 1, 0, 1
                  | 0, 0, 1, 0, 1, 0, 0, 1, 0
                  | 1, 1, 0, 1, 0, 0, 0, 0, 0
        |];
        
%sequence = [6, 2, 5, 4, 1, 3];        
        
         